results/mps/FMS_01_deadline_heurTrue.mps
NAME JobShopModel
ROWS
 N  OBJ
 G  c0      
 L  c1      
 G  c2      
 L  c3      
 G  c4      
 L  c5      
 G  c6      
 L  c7      
 G  c8      
 G  c9      
 G  c10     
 G  c11     
 E  c12     
 E  c13     
 E  c14     
 E  c15     
 L  c16     
 L  c17     
 L  c18     
 L  c19     
 L  c20     
 L  c21     
 L  c22     
 L  c23     
 G  c24     
 G  c25     
 G  c26     
 G  c27     
 G  c28     
 G  c29     
 G  c30     
 G  c31     
 G  c32     
 G  c33     
 G  c34     
 G  c35     
 G  c36     
 G  c37     
 G  c38     
 G  c39     
 G  c40     
 G  c41     
 G  c42     
 G  c43     
 G  c44     
 G  c45     
 G  c46     
 G  c47     
 G  c48     
 G  c49     
 G  c50     
 G  c51     
 G  c52     
 G  c53     
 G  c54     
 G  c55     
 G  c56     
 G  c57     
 G  c58     
 G  c59     
 G  c60     
 G  c61     
 G  c62     
 G  c63     
 G  c64     
 G  c65     
 G  c66     
 G  c67     
 G  c68     
 G  c69     
 G  OF_constraint
COLUMNS
    MARKER    'MARKER'                 'INTORG'
    y[0,0,0]  c0        32
    y[0,0,0]  c1        32
    y[0,0,0]  c12       1
    y[0,0,0]  c16       -10000000
    y[0,0,0]  c26       -10000000
    y[0,0,0]  c27       -10000000
    y[0,0,0]  c30       -10000000
    y[0,0,0]  c31       -10000000
    y[0,0,0]  c34       -10000000
    y[0,0,0]  c35       -10000000
    y[0,0,0]  c38       -10000000
    y[0,0,0]  c39       -10000000
    y[0,0,1]  c2        24
    y[0,0,1]  c3        24
    y[0,0,1]  c12       1
    y[0,0,1]  c17       -10000000
    y[0,0,1]  c28       -10000000
    y[0,0,1]  c29       -10000000
    y[0,0,1]  c32       -10000000
    y[0,0,1]  c33       -10000000
    y[0,0,1]  c36       -10000000
    y[0,0,1]  c37       -10000000
    y[0,0,1]  c40       -10000000
    y[0,0,1]  c41       -10000000
    y[0,1,0]  c13       1
    y[0,1,0]  c18       -10000000
    y[0,1,0]  c24       -25
    y[0,1,0]  c26       -10000000
    y[0,1,0]  c27       -10000000
    y[0,1,0]  c38       -10000000
    y[0,1,0]  c39       -10000000
    y[0,1,0]  c42       -10000000
    y[0,1,0]  c43       -10000000
    y[0,1,0]  c46       -10000000
    y[0,1,0]  c47       -10000000
    y[0,1,0]  c60       -480
    y[0,1,1]  c13       1
    y[0,1,1]  c19       -10000000
    y[0,1,1]  c24       -37
    y[0,1,1]  c28       -10000000
    y[0,1,1]  c29       -10000000
    y[0,1,1]  c40       -10000000
    y[0,1,1]  c41       -10000000
    y[0,1,1]  c44       -10000000
    y[0,1,1]  c45       -10000000
    y[0,1,1]  c48       -10000000
    y[0,1,1]  c49       -10000000
    y[0,1,1]  c62       -480
    y[1,0,0]  c4        21
    y[1,0,0]  c5        21
    y[1,0,0]  c14       1
    y[1,0,0]  c20       -10000000
    y[1,0,0]  c30       -10000000
    y[1,0,0]  c31       -10000000
    y[1,0,0]  c42       -10000000
    y[1,0,0]  c43       -10000000
    y[1,0,0]  c50       -10000000
    y[1,0,0]  c51       -10000000
    y[1,0,0]  c54       -10000000
    y[1,0,0]  c55       -10000000
    y[1,0,1]  c6        65
    y[1,0,1]  c7        65
    y[1,0,1]  c14       1
    y[1,0,1]  c21       -10000000
    y[1,0,1]  c32       -10000000
    y[1,0,1]  c33       -10000000
    y[1,0,1]  c44       -10000000
    y[1,0,1]  c45       -10000000
    y[1,0,1]  c52       -10000000
    y[1,0,1]  c53       -10000000
    y[1,0,1]  c56       -10000000
    y[1,0,1]  c57       -10000000
    y[1,1,0]  c15       1
    y[1,1,0]  c22       -10000000
    y[1,1,0]  c25       -45
    y[1,1,0]  c34       -10000000
    y[1,1,0]  c35       -10000000
    y[1,1,0]  c46       -10000000
    y[1,1,0]  c47       -10000000
    y[1,1,0]  c50       -10000000
    y[1,1,0]  c51       -10000000
    y[1,1,0]  c54       -10000000
    y[1,1,0]  c55       -10000000
    y[1,1,0]  c66       -480
    y[1,1,1]  c15       1
    y[1,1,1]  c23       -10000000
    y[1,1,1]  c25       -65
    y[1,1,1]  c36       -10000000
    y[1,1,1]  c37       -10000000
    y[1,1,1]  c48       -10000000
    y[1,1,1]  c49       -10000000
    y[1,1,1]  c52       -10000000
    y[1,1,1]  c53       -10000000
    y[1,1,1]  c56       -10000000
    y[1,1,1]  c57       -10000000
    y[1,1,1]  c68       -480
    x[0,0,0,0]  OBJ       0
    x[0,0,0,1]  c26       10000000
    x[0,0,0,1]  c27       -10000000
    x[0,0,0,1]  c28       10000000
    x[0,0,0,1]  c29       -10000000
    x[0,0,1,0]  c30       10000000
    x[0,0,1,0]  c31       -10000000
    x[0,0,1,0]  c32       10000000
    x[0,0,1,0]  c33       -10000000
    x[0,0,1,1]  c34       10000000
    x[0,0,1,1]  c35       -10000000
    x[0,0,1,1]  c36       10000000
    x[0,0,1,1]  c37       -10000000
    x[0,1,0,0]  c38       10000000
    x[0,1,0,0]  c39       -10000000
    x[0,1,0,0]  c40       10000000
    x[0,1,0,0]  c41       -10000000
    x[0,1,0,1]  OBJ       0
    x[0,1,1,0]  c42       10000000
    x[0,1,1,0]  c43       -10000000
    x[0,1,1,0]  c44       10000000
    x[0,1,1,0]  c45       -10000000
    x[0,1,1,1]  c46       10000000
    x[0,1,1,1]  c47       -10000000
    x[0,1,1,1]  c48       10000000
    x[0,1,1,1]  c49       -10000000
    x[1,0,0,0]  OBJ       0
    x[1,0,0,1]  OBJ       0
    x[1,0,1,0]  OBJ       0
    x[1,0,1,1]  c50       10000000
    x[1,0,1,1]  c51       -10000000
    x[1,0,1,1]  c52       10000000
    x[1,0,1,1]  c53       -10000000
    x[1,1,0,0]  OBJ       0
    x[1,1,0,1]  OBJ       0
    x[1,1,1,0]  c54       10000000
    x[1,1,1,0]  c55       -10000000
    x[1,1,1,0]  c56       10000000
    x[1,1,1,0]  c57       -10000000
    x[1,1,1,1]  OBJ       0
    s[0,0,0]  c0        1
    s[0,0,0]  c1        1
    s[0,0,0]  c16       1
    s[0,0,0]  c24       1
    s[0,0,0]  c26       -1
    s[0,0,0]  c27       1
    s[0,0,0]  c30       -1
    s[0,0,0]  c31       1
    s[0,0,0]  c34       -1
    s[0,0,0]  c35       1
    s[0,0,0]  c38       1
    s[0,0,0]  c39       -1
    s[0,0,0]  c58       1
    s[0,0,1]  c2        1
    s[0,0,1]  c3        1
    s[0,0,1]  c17       1
    s[0,0,1]  c24       1
    s[0,0,1]  c28       -1
    s[0,0,1]  c29       1
    s[0,0,1]  c32       -1
    s[0,0,1]  c33       1
    s[0,0,1]  c36       -1
    s[0,0,1]  c37       1
    s[0,0,1]  c40       1
    s[0,0,1]  c41       -1
    s[0,0,1]  c59       1
    s[0,1,0]  c18       1
    s[0,1,0]  c24       -1
    s[0,1,0]  c26       1
    s[0,1,0]  c27       -1
    s[0,1,0]  c38       -1
    s[0,1,0]  c39       1
    s[0,1,0]  c42       -1
    s[0,1,0]  c43       1
    s[0,1,0]  c46       -1
    s[0,1,0]  c47       1
    s[0,1,0]  c60       1
    s[0,1,0]  c61       1
    s[0,1,1]  c19       1
    s[0,1,1]  c24       -1
    s[0,1,1]  c28       1
    s[0,1,1]  c29       -1
    s[0,1,1]  c40       -1
    s[0,1,1]  c41       1
    s[0,1,1]  c44       -1
    s[0,1,1]  c45       1
    s[0,1,1]  c48       -1
    s[0,1,1]  c49       1
    s[0,1,1]  c62       1
    s[0,1,1]  c63       1
    s[1,0,0]  c4        1
    s[1,0,0]  c5        1
    s[1,0,0]  c20       1
    s[1,0,0]  c25       1
    s[1,0,0]  c30       1
    s[1,0,0]  c31       -1
    s[1,0,0]  c42       1
    s[1,0,0]  c43       -1
    s[1,0,0]  c50       -1
    s[1,0,0]  c51       1
    s[1,0,0]  c54       1
    s[1,0,0]  c55       -1
    s[1,0,0]  c64       1
    s[1,0,1]  c6        1
    s[1,0,1]  c7        1
    s[1,0,1]  c21       1
    s[1,0,1]  c25       1
    s[1,0,1]  c32       1
    s[1,0,1]  c33       -1
    s[1,0,1]  c44       1
    s[1,0,1]  c45       -1
    s[1,0,1]  c52       -1
    s[1,0,1]  c53       1
    s[1,0,1]  c56       1
    s[1,0,1]  c57       -1
    s[1,0,1]  c65       1
    s[1,1,0]  c22       1
    s[1,1,0]  c25       -1
    s[1,1,0]  c34       1
    s[1,1,0]  c35       -1
    s[1,1,0]  c46       1
    s[1,1,0]  c47       -1
    s[1,1,0]  c50       1
    s[1,1,0]  c51       -1
    s[1,1,0]  c54       -1
    s[1,1,0]  c55       1
    s[1,1,0]  c66       1
    s[1,1,0]  c67       1
    s[1,1,1]  c23       1
    s[1,1,1]  c25       -1
    s[1,1,1]  c36       1
    s[1,1,1]  c37       -1
    s[1,1,1]  c48       1
    s[1,1,1]  c49       -1
    s[1,1,1]  c52       1
    s[1,1,1]  c53       -1
    s[1,1,1]  c56       -1
    s[1,1,1]  c57       1
    s[1,1,1]  c68       1
    s[1,1,1]  c69       1
    Z_FO      OBJ       1
    Z_FO      OF_constraint  1
    C33       c0        -10000000
    C33       c1        -10000000
    C33       c8        1
    C33       OF_constraint  448
    C34       c2        -10000000
    C34       c3        -10000000
    C34       c9        1
    C34       OF_constraint  456
    C35       c4        -10000000
    C35       c5        -10000000
    C35       c10       1
    C35       OF_constraint  459
    C36       c6        -10000000
    C36       c7        -10000000
    C36       c11       1
    C36       OF_constraint  415
    MARKER    'MARKER'                 'INTEND'
RHS
    RHS1      c0        -9999520
    RHS1      c1        480
    RHS1      c2        -9999520
    RHS1      c3        480
    RHS1      c4        -9999520
    RHS1      c5        480
    RHS1      c6        -9999520
    RHS1      c7        480
    RHS1      c12       1
    RHS1      c13       1
    RHS1      c14       1
    RHS1      c15       1
    RHS1      c26       -19999708
    RHS1      c27       -29999915
    RHS1      c28       -19999816
    RHS1      c29       -29999798
    RHS1      c30       -19999796
    RHS1      c31       -29999799
    RHS1      c32       -19999806
    RHS1      c33       -29999823
    RHS1      c34       -19999823
    RHS1      c35       -29999787
    RHS1      c36       -19999889
    RHS1      c37       -29999853
    RHS1      c38       -19999915
    RHS1      c39       -29999708
    RHS1      c40       -19999798
    RHS1      c41       -29999816
    RHS1      c42       -19999911
    RHS1      c43       -29999783
    RHS1      c44       -19999810
    RHS1      c45       -29999750
    RHS1      c46       -19999840
    RHS1      c47       -29999922
    RHS1      c48       -19999819
    RHS1      c49       -29999760
    RHS1      c50       -19999727
    RHS1      c51       -29999895
    RHS1      c52       -19999875
    RHS1      c53       -29999690
    RHS1      c54       -19999895
    RHS1      c55       -29999727
    RHS1      c56       -19999690
    RHS1      c57       -29999875
BOUNDS
 BV BND1      y[0,0,0]
 BV BND1      y[0,0,1]
 BV BND1      y[0,1,0]
 BV BND1      y[0,1,1]
 BV BND1      y[1,0,0]
 BV BND1      y[1,0,1]
 BV BND1      y[1,1,0]
 BV BND1      y[1,1,1]
 BV BND1      x[0,0,0,0]
 BV BND1      x[0,0,0,1]
 BV BND1      x[0,0,1,0]
 BV BND1      x[0,0,1,1]
 BV BND1      x[0,1,0,0]
 BV BND1      x[0,1,0,1]
 BV BND1      x[0,1,1,0]
 BV BND1      x[0,1,1,1]
 BV BND1      x[1,0,0,0]
 BV BND1      x[1,0,0,1]
 BV BND1      x[1,0,1,0]
 BV BND1      x[1,0,1,1]
 BV BND1      x[1,1,0,0]
 BV BND1      x[1,1,0,1]
 BV BND1      x[1,1,1,0]
 BV BND1      x[1,1,1,1]
 LI BND1      s[0,0,0]  0
 LI BND1      s[0,0,1]  0
 LI BND1      s[0,1,0]  0
 LI BND1      s[0,1,1]  0
 LI BND1      s[1,0,0]  0
 LI BND1      s[1,0,1]  0
 LI BND1      s[1,1,0]  0
 LI BND1      s[1,1,1]  0
 LI BND1      Z_FO      0
 BV BND1      C33     
 BV BND1      C34     
 BV BND1      C35     
 BV BND1      C36     
QCMATRIX   OF_constraint
    s[0,0,0]  C33       -0.5
    C33       s[0,0,0]  -0.5
    s[0,0,1]  C34       -0.5
    C34       s[0,0,1]  -0.5
    s[1,0,0]  C35       -0.5
    C35       s[1,0,0]  -0.5
    s[1,0,1]  C36       -0.5
    C36       s[1,0,1]  -0.5
ENDATA
