results/log/FMS_01_deadline_heurTrue.log

Gurobi 10.0.1 (win64) logging started Sun Oct  8 04:17:21 2023

Set parameter LogFile to value "./results//log/FMS_01_deadline_heurTrue.log"
Gurobi Optimizer version 10.0.1 build v10.0.1rc0 (win64)

CPU model: AMD Ryzen 7 3700X 8-Core Processor, instruction set [SSE2|AVX|AVX2]
Thread count: 8 physical cores, 16 logical processors, using up to 16 threads

Optimize a model with 70 rows, 37 columns and 240 nonzeros
Model fingerprint: 0x8f3ab3b7
Model has 1 quadratic constraint
Variable types: 0 continuous, 37 integer (28 binary)
Coefficient statistics:
  Matrix range     [1e+00, 1e+07]
  QMatrix range    [1e+00, 1e+00]
  QLMatrix range   [1e+00, 5e+02]
  Objective range  [1e+00, 1e+00]
  Bounds range     [1e+00, 1e+00]
  RHS range        [1e+00, 3e+07]

User MIP start did not produce a new incumbent solution
User MIP start violates constraint initial_start_time_job0_stage0_machine0_constraint by 420.000000000

Presolve removed 16 rows and 12 columns
Presolve time: 0.02s
Presolved: 59 rows, 29 columns, 239 nonzeros
Variable types: 0 continuous, 29 integer (16 binary)

Root relaxation: objective 0.000000e+00, 14 iterations, 0.00 seconds (0.00 work units)
Another try with MIP start

    Nodes    |    Current Node    |     Objective Bounds      |     Work
 Expl Unexpl |  Obj  Depth IntInf | Incumbent    BestBd   Gap | It/Node Time

     0     0    0.00000    0    9          -    0.00000      -     -    0s
H    0     0                     577.0000000    0.00000   100%     -    0s
H    0     0                     576.0000000    0.00000   100%     -    0s
H    0     0                     336.0000000    0.00000   100%     -    0s
H    0     0                     297.0000000    0.00000   100%     -    0s
H    0     0                     281.0000000    0.00000   100%     -    0s
     0     0    0.00000    0   15  281.00000    0.00000   100%     -    0s
     0     0    0.00000    0    9  281.00000    0.00000   100%     -    0s
H    0     0                     271.0000000  135.00000  50.2%     -    0s
     0     0  135.00043    0    9  271.00000  135.00043  50.2%     -    0s
     0     0  179.00000    0    7  271.00000  179.00000  33.9%     -    0s
     0     0  271.00000    0    1  271.00000  271.00000  0.00%     -    0s

Cutting planes:
  Learned: 4
  Gomory: 1
  Cover: 6
  Implied bound: 2
  MIR: 2
  StrongCG: 1
  Flow cover: 1
  Inf proof: 1
  RLT: 6

Explored 1 nodes (94 simplex iterations) in 0.07 seconds (0.00 work units)
Thread count was 16 (of 16 available processors)

Solution count 6: 271 281 297 ... 577

Optimal solution found (tolerance 1.00e-04)
Best objective 2.710000000000e+02, best bound 2.710000000000e+02, gap 0.0000%
Warning: constraint name "precedence between 0,0 to 0,1 if x_[0,0,0,1,0]=0, i.e. 0,1 before 0,0" has a space
Warning: constraint name "precedence between 0,0 to 0,1 if x_[0,0,0,1,0]=0, i.e. 0,1 before 0,0" has a space
Warning: default constraint names used to write mps file
